\ Model CrewScheduling
\ LP format - for model browsing. Use MPS format to capture full model detail.
\ Signature: 0x9327f789229de288
Minimize
  x0 + x1 + x2 + x3 + x4 + x5 + x6 + x7 + x8 + x9 + x10 + x11 + x12 + x13
   + x14 + x15 + x16 + x17 + x18 + x19 + x20 + x21 + x22 + x23 + x24 + x25
   + x26 + x27 + x28 + x29 + x30 + x31 + x32 + x33 + x34 + x35 + x36 + x37
   + x38 + x39 + x40 + x41 + x42 + x43 + x44 + x45 + x46 + x47 + x48 + x49
   + x50 + x51 + x52 + x53 + x54 + x55 + x56 + x57 + x58 + x59 + x60 + x61
   + x62 + x63 + x64 + x65 + x66 + x67 + x68 + x69 + x70 + x71 + x72 + x73
   + x74 + x75 + x76 + x77 + x78 + x79 + x80 + x81 + x82 + x83 + x84 + x85
   + x86 + x87 + x88 + x89 + x90 + x91 + x92 + x93 + x94 + x95 + x96 + x97
   + x98 + x99 + x100 + x101 + x102 + x103 + x104 + x105 + x106 + x107
   + x108 + x109 + x110 + x111 + x112 + x113 + x114 + x115 + x116 + x117
   + x118 + x119 + x120 + x121 + x122 + x123 + x124 + x125 + x126 + x127
   + x128 + x129 + x130 + x131 + x132 + x133 + x134 + x135 + x136 + x137
   + x138 + x139 + x140 + x141 + x142 + x143 + x144 + x145 + x146 + x147
   + x148 + x149 + x150 + x151 + x152 + x153 + x154 + x155 + x156 + x157
   + x158 + x159 + x160 + x161 + x162 + x163 + x164 + x165 + x166 + x167
   + x168 + x169 + x170 + x171 + x172 + x173 + x174 + x175 + x176 + x177
   + x178 + x179 + x180 + x181 + x182 + x183 + x184 + x185 + x186 + x187
   + x188 + x189 + x190 + x191 + x192 + x193 + x194 + x195 + x196 + x197
   + x198 + x199 + x200 + x201 + x202 + x203 + x204 + x205 + x206 + x207
   + x208 + x209 + x210 + x211 + x212 + x213 + x214 + x215 + x216 + x217
   + x218 + x219 + x220 + x221 + x222 + x223 + x224 + x225 + x226 + x227
   + x228 + x229 + x230 + x231 + x232 + x233 + x234 + x235 + x236 + x237
   + x238 + x239 + x240 + x241 + x242 + x243 + x244 + x245 + x246 + x247
   + x248 + x249 + x250 + x251 + x252 + x253 + x254 + x255 + x256 + x257
   + x258 + x259 + x260 + x261 + x262 + x263 + x264 + x265 + x266 + x267
   + x268 + x269 + x270 + x271 + x272 + x273 + x274 + x275 + x276 + x277
   + x278 + x279 + x280 + x281 + x282 + x283 + x284 + x285 + x286 + x287
   + x288 + x289 + x290 + x291 + x292 + x293 + x294 + x295 + x296 + x297
   + x298 + x299 + x300 + x301 + x302 + x303 + x304 + x305 + x306 + x307
   + x308 + x309 + x310 + x311 + x312 + x313 + x314 + x315 + x316 + x317
   + x318 + x319 + x320 + x321 + x322 + x323 + x324 + x325 + x326 + x327
   + x328 + x329 + x330 + x331 + x332 + x333 + x334 + x335 + x336 + x337
   + x338 + x339 + x340 + x341 + x342 + x343 + x344 + x345 + x346 + x347
   + x348 + x349 + x350 + x351 + x352 + x353 + x354 + x355 + x356 + x357
   + x358 + x359 + x360 + x361 + x362 + x363 + x364 + x365 + x366 + x367
   + x368 + x369 + x370 + x371 + x372 + x373 + x374 + x375 + x376 + x377
   + x378 + x379 + x380 + x381 + x382 + x383 + x384 + x385 + x386 + x387
   + x388 + x389 + x390 + x391 + x392 + x393 + x394 + x395 + x396 + x397
   + x398 + x399 + x400 + x401 + x402 + x403 + x404 + x405 + x406 + x407
   + x408 + x409 + x410 + x411 + x412 + x413 + x414 + x415 + x416 + x417
   + x418 + x419 + x420 + x421 + x422 + x423 + x424 + x425 + x426 + x427
   + x428 + x429 + x430 + x431 + x432 + x433 + x434 + x435 + x436 + x437
   + x438 + x439 + x440 + x441 + x442 + x443 + x444 + x445 + x446 + x447
   + x448 + x449 + x450 + x451 + x452 + x453 + x454 + x455 + x456 + x457
   + x458 + x459 + x460 + x461 + x462 + x463 + x464 + x465 + x466 + x467
   + x468 + x469 + x470 + x471 + x472 + x473 + x474 + x475 + x476 + x477
   + x478 + x479 + x480 + x481 + x482 + x483 + x484 + x485 + x486 + x487
   + x488 + x489 + x490 + x491 + x492 + x493 + x494 + x495 + x496 + x497
   + x498 + x499 + x500 + x501 + x502 + x503 + x504 + x505 + x506 + x507
   + x508 + x509 + x510 + x511 + x512 + x513 + x514 + x515 + x516 + x517
   + x518 + x519 + x520 + x521 + x522 + x523 + x524 + x525 + x526 + x527
   + x528 + x529 + x530 + x531 + x532 + x533 + x534 + x535 + x536 + x537
   + x538 + x539 + x540 + x541 + x542 + x543 + x544 + x545 + x546 + x547
   + x548 + x549 + x550 + x551 + x552 + x553 + x554 + x555 + x556 + x557
   + x558 + x559 + x560 + x561 + x562 + x563 + x564 + x565 + x566 + x567
   + x568 + x569 + x570 + x571 + x572 + x573 + x574 + x575 + x576 + x577
   + x578 + x579 + x580 + x581 + x582 + x583 + x584 + x585 + x586 + x587
   + x588 + x589 + x590 + x591 + x592 + x593 + x594 + x595 + x596 + x597
   + x598 + x599 + x600 + x601 + x602 + x603 + x604 + x605 + x606 + x607
   + x608 + x609 + x610 + x611 + x612 + x613
Subject To
 Service_336: x66 + x136 + x148 + x198 + x199 + x226 + x287 + x323 + x428
   + x462 + x487 + x523 + x556 >= 1
 Service_872: x0 + x89 + x126 + x328 + x331 + x343 + x350 + x353 + x361
   + x555 + x570 + x590 + x605 >= 1
 Service_873: x1 + x55 + x64 + x97 + x153 + x336 + x339 + x359 + x396
   + x405 + x408 + x436 + x458 + x477 + x488 + x504 + x539 + x573 + x577
   + x587 + x599 + x601 + x607 + x608 >= 1
 Service_874: x2 + x76 + x108 + x362 + x371 + x372 + x527 + x561 + x566
   + x580 + x586 >= 1
 Service_876: x3 + x78 + x149 + x392 + x394 + x435 >= 1
 Service_877: x4 + x96 + x139 + x283 + x291 + x335 + x370 + x479 + x562
   + x596 >= 1
 Service_527: x5 >= 1
 Service_880: x90 + x98 + x130 + x515 + x532 >= 1
 Service_926: x6 + x163 + x171 + x180 + x242 + x246 + x247 + x262 + x263
   + x264 + x267 + x270 + x290 + x307 >= 1
 Service_927: x61 + x75 + x137 + x138 + x288 + x303 + x312 + x399 >= 1
 Service_0: x88 + x131 + x461 + x613 >= 1
 Service_928: x7 + x74 + x106 + x147 + x398 + x403 + x406 + x409 >= 1
 Service_693: x53 + x81 + x560 + x597 >= 1
 Service_694: x72 + x154 >= 1
 Service_1: x115 + x122 + x151 + x187 + x188 + x189 + x289 + x432 + x492
   + x494 >= 1
 Service_2: x94 + x132 + x140 + x220 + x351 + x453 + x483 + x516 + x517
   + x548 + x574 + x576 + x582 + x584 + x589 >= 1
 Service_929: x73 + x93 + x142 + x429 + x554 + x585 + x602 + x603 + x609
   + x610 >= 1
 Service_3: x87 + x123 + x134 + x223 + x260 + x338 + x341 + x407 + x525
   + x534 + x567 + x569 + x583 + x591 + x592 >= 1
 Service_529: x8 + x165 + x184 + x185 + x237 + x254 + x255 + x256 + x265
   + x269 >= 1
 Service_5: x67 + x77 + x110 + x206 + x234 + x318 + x334 + x373 + x376
   + x380 + x391 + x452 + x498 + x503 + x522 + x529 + x544 + x588 >= 1
 Service_7: x53 + x81 + x200 + x560 + x590 + x597 >= 1
 Service_531: x9 + x163 + x180 + x242 + x246 + x267 + x290 + x313 + x381
   >= 1
 Service_698: x10 + x61 + x328 + x343 + x361 + x392 + x399 + x555 + x570
   >= 1
 Service_342: x4 + x96 + x136 + x462 + x562 >= 1
 Service_343: x11 + x198 >= 1
 Service_533: x6 + x164 + x247 + x264 >= 1
 Service_700: x0 + x3 + x93 + x137 + x353 + x403 + x554 + x585 + x602
   + x603 + x605 >= 1
 Service_702: x7 + x126 + x409 >= 1
 Service_535: x5 + x262 >= 1
 Service_346: x12 + x199 + x226 + x335 >= 1
 Service_14: x74 + x90 + x142 + x149 + x303 + x312 + x331 + x394 + x398
   + x406 + x435 + x532 + x609 + x610 >= 1
 Service_347: x55 + x80 + x428 >= 1
 Service_16: x13 + x76 + x107 + x135 + x153 + x173 + x327 + x366 + x408
   + x458 + x459 + x521 + x523 + x556 + x561 + x573 + x577 + x586 + x596
   >= 1
 Service_538: x8 + x166 + x184 + x242 + x263 + x313 >= 1
 Service_18: x63 + x129 + x143 + x228 + x291 + x323 + x336 + x358 + x365
   + x401 + x509 >= 1
 Service_349: x64 + x66 + x370 + x371 + x372 + x405 + x539 >= 1
 Service_19: x73 + x75 + x130 + x138 + x147 + x288 + x350 + x429 + x515
   >= 1
 Service_351: x1 + x2 + x97 + x283 + x359 + x396 + x436 + x479 + x487
   + x504 + x527 + x566 + x580 + x598 + x604 >= 1
 Service_541: x9 + x164 + x171 + x237 + x246 + x247 + x254 + x255 + x256
   + x270 + x307 >= 1
 Service_23: x78 + x106 >= 1
 Service_24: x14 + x134 + x139 + x338 + x339 + x362 + x407 + x477 + x483
   + x488 + x525 + x574 + x582 + x583 + x589 >= 1
 Service_26: x15 + x96 + x140 + x148 + x341 + x351 + x534 + x569 + x591
   + x599 >= 1
 Service_544: x6 + x165 + x290 >= 1
 Service_30: x87 + x108 + x132 + x136 + x198 + x334 + x452 + x498 + x503
   + x544 + x562 + x576 + x584 + x587 + x588 + x592 + x601 >= 1
 Service_34: x4 + x81 >= 1
 Service_547: x5 >= 1
 Service_359: x11 + x199 + x220 + x234 + x287 + x380 >= 1
 Service_717: x10 + x89 + x154 + x187 + x289 + x392 + x555 >= 1
 Service_718: x0 + x3 + x98 + x603 >= 1
 Service_362: x55 + x67 + x110 + x123 + x260 + x335 + x373 + x376 + x453
   + x462 + x522 + x548 + x560 + x567 + x590 >= 1
 Service_550: x8 + x167 + x185 + x255 >= 1
 Service_366: x12 + x200 + x206 + x223 + x283 + x371 >= 1
 Service_721: x7 + x88 >= 1
 Service_553: x9 + x165 + x180 + x256 + x264 + x265 + x269 + x270 >= 1
 Service_50: x53 + x77 + x94 + x226 + x318 + x331 + x370 + x372 + x391
   + x398 + x479 + x487 + x504 + x517 + x527 + x529 + x532 + x597 + x604
   + x607 + x609 >= 1
 Service_722: x61 + x107 + x137 + x327 + x353 + x366 + x403 + x409 + x432
   + x458 + x459 + x521 + x554 + x556 + x570 + x586 >= 1
 Service_53: x16 + x173 >= 1
 Service_56: x17 + x154 + x187 + x289 + x392 >= 1
 Service_55: x1 + x2 + x101 + x357 + x406 + x440 + x515 + x516 + x539
   + x566 + x598 + x608 + x610 >= 1
 Service_724: x72 + x188 + x228 + x328 + x365 + x399 >= 1
 Service_556: x6 + x166 + x267 >= 1
 Service_726: x13 + x129 + x135 + x143 + x153 + x189 + x358 + x401 + x509
   >= 1
 Service_62: x115 + x131 + x151 + x362 + x408 + x492 >= 1
 Service_63: x75 + x80 + x394 + x396 + x405 + x428 >= 1
 Service_559: x5 >= 1
 Service_65: x88 + x122 + x259 + x341 + x461 >= 1
 Service_69: x63 + x93 + x126 + x323 + x338 + x361 + x494 + x544 + x573
   + x576 + x582 + x591 + x592 + x596 + x599 + x605 >= 1
 Service_562: x8 + x168 + x262 + x265 + x307 + x321 >= 1
 Service_73: x14 + x15 + x98 + x343 + x452 + x488 + x534 + x583 + x601
   + x602 >= 1
 Service_734: x10 + x148 + x315 + x336 + x455 + x477 + x503 + x525 + x561
   + x569 + x577 + x584 + x585 >= 1
 Service_565: x9 + x166 + x181 + x184 + x254 + x263 + x269 + x272 >= 1
 Service_381: x11 + x200 + x203 + x212 + x216 + x312 >= 1
 Service_382: x18 + x64 + x67 + x435 + x436 >= 1
 Service_737: x0 + x3 + x4 >= 1
 Service_568: x6 + x167 + x313 + x314 >= 1
 Service_385: x12 + x201 + x209 + x220 + x260 + x303 >= 1
 Service_741: x7 + x76 + x139 + x319 + x326 + x334 + x339 >= 1
 Service_89: x19 + x53 + x108 + x459 + x483 + x498 + x523 >= 1
 Service_386: x66 + x74 + x97 + x522 >= 1
 Service_571: x5 >= 1
 Service_92: x138 + x146 + x149 + x150 + x152 + x202 + x340 + x429 + x438
   + x453 + x475 >= 1
 Service_388: x73 + x110 + x359 + x548 + x560 + x580 >= 1
 Service_95: x20 + x57 + x130 + x249 + x252 + x284 + x316 + x377 + x386
   + x418 + x424 >= 1
 Service_94: x21 + x87 + x140 + x407 + x509 + x521 + x574 + x587 + x588
   + x600 >= 1
 Service_574: x8 + x169 + x297 + x305 >= 1
 Service_390: x90 + x106 + x142 + x147 + x154 + x205 + x427 + x553 + x567
   >= 1
 Service_101: x16 + x174 + x178 + x187 + x234 + x350 + x375 >= 1
 Service_102: x13 + x89 + x134 + x291 + x351 + x457 + x581 + x589 >= 1
 Service_103: x17 + x155 + x190 + x194 + x221 + x223 + x224 + x287 + x288
   + x431 >= 1
 Service_577: x9 + x167 + x185 + x253 + x293 + x317 >= 1
 Service_107: x63 + x78 + x376 + x380 >= 1
 Service_111: x11 + x201 + x206 + x248 + x373 >= 1
 Service_580: x6 + x168 + x329 + x330 >= 1
 Service_398: x121 + x123 + x156 + x222 + x281 + x282 + x368 + x492 + x510
   + x528 + x540 >= 1
 Service_756: x0 + x1 + x2 + x3 + x4 + x10 + x132 >= 1
 Service_401: x14 + x15 + x18 + x104 + x426 >= 1
 Service_757: x22 + x81 + x143 + x175 + x188 + x211 + x301 + x322 + x327
   + x344 + x432 + x516 + x517 + x529 + x557 + x558 + x563 + x564 + x568
   + x594 + x597 + x604 + x607 >= 1
 Service_583: x5 >= 1
 Service_760: x7 + x77 + x107 + x401 >= 1
 Service_405: x12 + x203 + x229 + x231 + x261 + x292 + x352 >= 1
 Service_761: x23 + x129 + x304 + x365 + x366 + x384 + x391 >= 1
 Service_586: x8 + x181 >= 1
 Service_125: x62 + x115 + x173 + x216 + x259 + x289 + x461 + x494 >= 1
 Service_898: x72 + x189 + x228 + x318 >= 1
 Service_128: x24 + x132 + x245 >= 1
 Service_763: x25 + x94 + x135 + x358 + x500 >= 1
 Service_899: x26 >= 1
 Service_129: x88 + x151 + x480 >= 1
 Service_589: x9 + x168 + x186 + x233 + x253 + x272 + x297 + x321 + x329
   >= 1
 Service_765: x80 + x146 + x252 + x319 + x340 + x375 + x377 + x386 >= 1
 Service_134: x57 + x101 + x150 + x152 + x315 + x316 + x326 + x357 + x418
   + x424 + x440 + x455 + x475 + x489 + x493 + x505 + x530 + x551 + x571
   + x598 + x608 >= 1
 Service_135: x19 + x21 + x122 + x131 + x212 + x446 + x456 + x497 + x546
   >= 1
 Service_136: x20 + x77 + x107 + x172 + x401 >= 1
 Service_592: x6 + x169 + x330 >= 1
 Service_140: x16 + x175 + x221 + x301 >= 1
 Service_595: x54 + x112 + x118 + x119 + x305 + x314 + x317 + x379 + x466
   + x469 + x470 >= 1
 Service_144: x17 + x174 + x201 + x211 + x224 + x248 + x284 + x322 + x344
   + x431 >= 1
 Service_772: x10 + x22 + x27 + x190 + x557 >= 1
 Service_418: x13 + x14 + x15 + x18 + x209 >= 1
 Service_598: x8 + x182 >= 1
 Service_774: x11 + x202 + x249 + x304 + x384 >= 1
 Service_421: x12 + x205 + x292 >= 1
 Service_601: x9 + x169 + x207 + x233 + x241 + x275 + x293 + x324 >= 1
 Service_777: x23 + x28 + x155 + x157 + x159 + x178 + x243 >= 1
 Service_422: x29 + x192 + x229 + x261 + x281 >= 1
 Service_158: x25 + x30 + x62 + x146 + x194 + x286 + x416 + x421 + x500
   + x563 + x568 >= 1
 Service_424: x104 + x121 + x203 + x231 + x245 + x282 + x352 + x368 + x426
   + x427 + x457 + x553 >= 1
 Service_161: x31 + x156 + x208 + x213 + x222 >= 1
 Service_162: x120 + x133 + x196 + x258 + x285 + x319 + x337 + x367 + x369
   + x420 + x438 + x558 >= 1
 Service_604: x32 + x54 >= 1
 Service_426: x33 + x57 + x91 + x114 + x397 + x425 + x440 + x489 + x493
   + x528 + x530 + x540 + x551 + x581 + x600 + x606 + x612 >= 1
 Service_167: x24 + x86 + x150 + x315 + x410 + x468 + x474 >= 1
 Service_168: x103 + x127 + x179 + x210 + x302 + x311 + x456 + x480 + x497
   + x546 + x564 + x593 + x594 >= 1
 Service_607: x34 + x56 + x112 >= 1
 Service_169: x82 + x158 + x172 + x197 + x326 + x413 + x418 + x419 + x475
   + x484 + x505 + x510 >= 1
 Service_173: x20 + x101 + x152 + x221 + x471 + x472 + x476 >= 1
 Service_610: x35 + x118 + x181 + x324 + x325 >= 1
 Service_177: x16 + x176 + x224 + x227 + x322 >= 1
 Service_433: x18 + x36 + x204 + x211 + x268 + x320 + x354 >= 1
 Service_613: x37 + x54 + x109 + x119 + x182 + x186 + x207 + x241 + x253
   + x272 + x274 + x275 + x278 + x280 + x293 + x297 + x305 + x314 + x317
   + x321 + x329 + x330 + x379 + x466 + x469 + x470 + x536 >= 1
 Service_790: x19 + x21 + x22 + x27 + x159 + x340 + x386 + x464 + x547
   >= 1
 Service_435: x17 + x175 + x209 + x218 + x229 + x348 + x383 >= 1
 Service_616: x32 + x56 + x112 + x233 + x273 >= 1
 Service_793: x23 + x28 + x161 + x190 + x216 + x249 + x252 + x259 >= 1
 Service_438: x29 + x193 + x219 + x390 + x393 >= 1
 Service_794: x79 + x155 + x162 + x217 + x239 + x375 + x377 + x411 + x412
   + x423 + x446 + x541 + x542 + x552 + x557 >= 1
 Service_192: x62 + x104 + x141 + x174 + x192 + x205 + x248 + x261 + x281
   + x284 + x292 + x301 + x316 + x352 + x356 + x357 + x368 + x387 + x431
   + x457 + x493 + x500 + x540 + x549 + x553 + x568 + x571 + x581 + x595
   + x600 >= 1
 Service_619: x34 + x118 + x324 + x325 >= 1
 Service_194: x38 + x156 + x202 + x212 + x230 + x236 + x250 + x251 + x306
   + x430 >= 1
 Service_796: x95 + x105 + x117 + x304 + x389 + x395 + x414 + x473 >= 1
 Service_195: x25 + x30 + x33 + x83 + x84 + x160 + x382 + x427 + x482
   + x485 + x528 + x530 + x558 >= 1
 Service_622: x35 + x109 + x186 + x241 + x278 + x280 >= 1
 Service_798: x39 + x86 + x102 + x144 + x266 + x384 + x385 + x417 + x422
   + x478 + x508 >= 1
 Service_200: x31 + x157 + x170 + x225 + x299 >= 1
 Service_202: x100 + x116 + x121 + x344 + x424 + x433 + x438 + x449 + x451
   + x455 + x490 + x497 + x513 + x514 >= 1
 Service_201: x60 + x99 + x128 + x145 + x158 + x178 + x190 + x216 + x235
   + x249 + x252 + x259 + x434 + x439 + x441 + x496 + x505 + x545 >= 1
 Service_625: x37 + x40 + x273 + x379 >= 1
 Service_206: x24 + x71 + x415 >= 1
 Service_210: x41 + x69 + x215 + x222 + x243 + x332 + x355 + x374 + x419
   + x464 + x468 + x471 + x472 + x474 + x481 + x484 + x518 >= 1
 Service_628: x32 + x42 + x207 + x469 + x536 >= 1
 Service_805: x20 + x70 + x476 >= 1
 Service_453: x18 + x36 + x183 + x300 + x308 + x404 >= 1
 Service_631: x34 + x43 + x470 >= 1
 Service_807: x19 + x21 + x22 + x27 + x176 + x271 + x448 + x507 + x512
   + x542 + x550 + x552 + x579 >= 1
 Service_634: x35 + x56 + x119 + x273 + x280 >= 1
 Service_456: x29 + x194 + x231 + x232 + x298 + x388 + x400 >= 1
 Service_457: x65 + x68 + x196 + x219 + x245 + x282 + x342 + x426 + x489
   + x491 + x538 >= 1
 Service_810: x23 + x28 + x162 + x192 + x244 + x360 + x363 + x402 >= 1
 Service_225: x79 + x159 + x161 + x172 + x217 + x410 + x412 + x417 + x454
   + x473 + x531 + x533 + x541 + x547 + x549 + x559 >= 1
 Service_637: x37 + x40 + x274 >= 1
 Service_459: x44 + x91 + x285 + x286 + x397 + x486 + x499 + x511 + x535
   + x543 + x563 + x565 >= 1
 Service_229: x45 + x114 + x369 + x416 + x420 + x421 + x425 + x450 + x495
   + x502 + x519 + x526 + x546 + x551 + x572 + x593 + x594 + x606 >= 1
 Service_230: x82 + x160 + x177 + x208 + x227 + x411 + x413 + x422 + x423
   + x478 + x482 + x501 + x520 >= 1
 Service_462: x120 + x133 + x179 + x195 + x204 + x210 + x230 + x251 + x268
   + x302 + x337 + x348 + x367 + x383 + x524 + x537 >= 1
 Service_640: x32 + x42 + x182 + x275 + x466 >= 1
 Service_235: x38 + x157 + x236 + x258 + x390 >= 1
 Service_236: x39 + x85 + x197 + x213 + x239 + x382 + x387 + x485 + x506
   + x510 >= 1
 Service_237: x60 + x103 + x128 + x145 + x193 + x218 + x225 + x235 + x250
   + x299 + x306 + x311 + x320 + x354 + x393 + x430 + x434 + x442 + x443
   + x444 + x447 + x480 >= 1
 Service_241: x99 + x127 + x183 + x300 + x308 + x404 + x415 + x437 + x456
   + x463 + x465 + x564 + x575 + x578 >= 1
 Service_643: x34 + x43 + x278 >= 1
 Service_247: x31 + x158 + x215 + x298 + x355 + x400 >= 1
 Service_646: x35 + x109 + x240 + x257 + x274 + x276 + x310 + x325 >= 1
 Service_470: x24 + x36 + x232 + x332 + x342 + x374 + x388 + x471 + x545
   >= 1
 Service_825: x22 + x25 + x27 + x30 + x33 >= 1
 Service_472: x41 + x68 + x170 + x214 + x445 + x472 + x474 + x481 + x484
   + x486 + x499 + x518 >= 1
 Service_649: x37 + x40 + x279 + x309 >= 1
 Service_828: x23 + x28 + x116 + x446 >= 1
 Service_475: x29 + x195 + x285 >= 1
 Service_652: x32 + x42 + x294 + x467 >= 1
 Service_829: x84 + x102 + x117 + x141 + x356 + x360 + x363 + x385 + x389
   + x395 + x402 + x514 >= 1
 Service_263: x44 + x113 + x133 + x219 + x243 + x302 + x417 + x419 + x454
   + x464 + x468 + x496 + x511 + x537 + x538 + x541 + x543 + x549 + x559
   + x565 >= 1
 Service_266: x46 + x58 + x95 + x100 + x144 + x244 + x266 + x271 + x414
   + x433 + x476 + x508 >= 1
 Service_831: x83 + x86 + x105 + x420 + x421 + x425 + x507 + x519 + x526
   + x550 + x552 + x571 + x572 + x579 + x593 + x595 + x611 >= 1
 Service_267: x65 + x69 + x210 + x217 + x473 + x482 + x501 + x520 + x531
   + x533 + x535 >= 1
 Service_655: x34 + x43 + x333 + x347 >= 1
 Service_272: x47 + x92 + x495 >= 1
 Service_834: x70 + x114 + x236 + x238 + x258 + x369 + x390 + x451 >= 1
 Service_273: x71 + x91 + x227 + x345 + x349 + x411 + x439 + x441 + x485
   + x491 + x506 + x524 + x547 >= 1
 Service_274: x59 + x116 + x416 + x446 + x450 + x490 + x512 + x513 >= 1
 Service_658: x35 + x111 + x125 + x296 + x536 >= 1
 Service_278: x45 + x60 + x218 + x299 + x306 + x311 + x393 + x442 + x443
   + x444 + x448 + x449 + x502 >= 1
 Service_661: x37 + x40 + x277 + x295 >= 1
 Service_284: x38 + x176 + x193 + x225 + x235 + x300 + x320 >= 1
 Service_842: x27 + x30 + x33 + x128 + x141 + x215 + x363 + x415 + x430
   + x437 + x463 + x514 + x542 + x575 >= 1
 Service_664: x32 + x42 + x257 + x333 >= 1
 Service_490: x36 + x39 + x41 + x232 + x478 + x481 + x499 >= 1
 Service_844: x31 + x162 + x183 + x250 + x360 >= 1
 Service_493: x29 + x196 + x204 + x213 + x230 + x348 >= 1
 Service_667: x34 + x43 + x276 + x460 >= 1
 Service_847: x28 + x103 + x117 + x238 + x385 + x447 + x465 + x507 + x519
   >= 1
 Service_494: x48 + x68 + x251 + x268 + x286 + x332 + x367 + x383 + x397
   + x410 + x422 + x423 >= 1
 Service_299: x84 + x99 + x145 + x298 + x308 + x354 + x355 + x356 + x454
   + x526 + x538 + x543 + x550 >= 1
 Service_496: x49 + x95 + x120 + x177 + x412 + x508 >= 1
 Service_670: x35 + x111 + x124 + x277 + x279 + x294 + x310 + x347 + x378
   + x467 >= 1
 Service_302: x65 + x83 + x127 + x389 + x501 + x535 + x537 + x559 + x565
   + x572 + x578 + x579 + x595 + x606 + x611 >= 1
 Service_903: x82 + x161 + x179 + x191 + x337 + x445 >= 1
 Service_499: x79 + x160 + x195 + x197 + x214 + x433 >= 1
 Service_307: x44 + x102 + x105 + x395 + x400 + x402 + x404 + x434 + x496
   + x506 + x520 + x524 >= 1
 Service_904: x46 + x59 + x486 >= 1
 Service_673: x37 + x40 + x240 + x364 >= 1
 Service_309: x58 + x92 + x208 + x239 + x244 + x266 + x342 + x346 + x374
   + x382 + x387 + x388 + x413 + x450 + x512 + x513 + x545 >= 1
 Service_905: x47 + x85 + x448 + x449 + x490 + x495 + x502 + x518 >= 1
 Service_675: x32 + x42 + x295 + x296 + x309 + x460 >= 1
 Service_316: x45 + x116 + x170 + x444 >= 1
 Service_507: x36 + x39 + x41 + x271 + x414 + x442 >= 1
 Service_677: x34 + x43 + x378 >= 1
 Service_914: x50 >= 1
 Service_508: x38 + x177 >= 1
 Service_916: x51 >= 1
 Service_679: x35 + x124 + x125 + x364 >= 1
 Service_511: x48 + x49 + x100 + x144 + x214 + x443 >= 1
 Service_863: x70 + x113 + x345 + x349 + x437 + x441 + x451 + x511 + x531
   + x533 >= 1
 Service_917: x52 >= 1
 Service_681: x40 + x111 + x257 + x276 + x295 + x309 + x333 + x460 + x467
   >= 1
 Service_867: x69 + x71 + x447 + x463 + x465 + x491 >= 1
 Service_920: x70 + x113 + x346 + x349 + x437 + x439 + x441 + x451 + x511
   + x533 >= 1
 Service_684: x42 + x43 + x124 + x125 + x240 + x277 + x279 + x294 + x296
   + x310 + x347 + x364 + x378 >= 1
 Service_921: x46 + x85 + x191 + x445 >= 1
 Service_922: x58 + x92 + x238 >= 1
 Service_924: x47 + x59 >= 1
Bounds
 x0 = 1
 x4 = 1
 x5 = 1
 x6 = 1
 x7 = 1
 x8 = 1
 x9 = 1
 x10 = 1
 x11 = 1
 x12 = 1
 x16 = 1
 x17 = 1
 x18 = 1
 x19 = 1
 x20 = 1
 x23 = 1
 x24 = 1
 x26 = 1
 x29 = 1
 x30 = 1
 x31 = 1
 x32 = 1
 x34 = 1
 x35 = 1
 x38 = 1
 x39 = 1
 x40 = 1
 x46 = 1
 x47 = 1
 x50 = 1
 x51 = 1
 x52 = 1
 x66 = 1
 x69 = 1
 x72 = 1
 x78 = 1
 x80 = 1
 x82 = 1
 x83 = 1
 x88 = 1
 x90 = 1
 x114 = 1
 x115 = 1
 x124 = 1
 x134 = 1
 x138 = 1
 x140 = 1
 x214 = 1
 x238 = 1
 x282 = 1
 x317 = 1
 x357 = 1
 x358 = 1
 x367 = 1
 x395 = 1
 x412 = 1
 x441 = 1
 x444 = 1
 x504 = 1
 x513 = 1
 x543 = 1
 x544 = 1
 x560 = 1
 x564 = 1
 x586 = 1
 x602 = 1
End
