\ Model SPPRC
\ LP format - for model browsing. Use MPS format to capture full model detail.
\ Signature: 0x149cd4647b30dd5d
Maximize
 
Subject To
 Service_inflow_336: - x_336_343 - x_336_18 - x_336_349 - x_336_351
   - x_336_30 - x_336_34 - x_336_359 - x_336_-1 + x_-2_336 = 0
 Service_inflow_872: - x_872_7 - x_872_698 - x_872_702 - x_872_14
   - x_872_23 - x_872_-1 + x_-2_872 = 0
 Service_inflow_873: - x_873_18 - x_873_349 - x_873_351 - x_873_30
   - x_873_34 - x_873_359 - x_873_366 - x_873_50 - x_873_-1 + x_-2_873 = 0
 Service_inflow_527: - x_527_-1 + x_-2_527 = 0
 Service_inflow_880: - x_880_702 - x_880_14 - x_880_23 - x_880_718
   - x_880_56 - x_880_724 - x_880_-1 + x_-2_880 = 0
 Service_inflow_693: - x_693_7 - x_693_702 - x_693_14 - x_693_23
   - x_693_718 - x_693_-1 + x_-2_693 = 0
 Service_inflow_1: - x_1_23 - x_1_718 - x_1_56 - x_1_724 - x_1_726 - x_1_69
   - x_1_-1 + x_-2_1 = 0
 Service_inflow_929: - x_929_702 - x_929_14 - x_929_23 - x_929_718
   - x_929_-1 + x_-2_929 = 0
 Service_inflow_5: - x_5_30 - x_5_34 - x_5_359 - x_5_366 - x_5_50 - x_5_63
   - x_5_-1 + x_-2_5 = 0
 Service_inflow_7: x_872_7 + x_693_7 - x_7_34 - x_7_359 - x_7_366 - x_7_50
   - x_7_63 - x_7_382 - x_7_-1 + x_-2_7 = 0
 Service_inflow_698: x_872_698 - x_698_718 - x_698_56 - x_698_724
   - x_698_726 - x_698_69 - x_698_73 - x_698_-1 + x_-2_698 = 0
 Service_inflow_343: x_336_343 - x_343_30 - x_343_34 - x_343_359
   - x_343_366 - x_343_50 - x_343_63 - x_343_-1 + x_-2_343 = 0
 Service_inflow_702: x_872_702 + x_880_702 + x_693_702 + x_929_702
   - x_702_718 - x_702_56 - x_702_724 - x_702_726 - x_702_69 - x_702_73
   - x_702_734 - x_702_-1 + x_-2_702 = 0
 Service_inflow_14: x_872_14 + x_880_14 + x_693_14 + x_929_14 - x_14_50
   - x_14_63 - x_14_382 - x_14_388 - x_14_95 - x_14_390 - x_14_-1 + x_-2_14
   = 0
 Service_inflow_18: x_336_18 + x_873_18 - x_18_56 - x_18_724 - x_18_726
   - x_18_69 - x_18_73 - x_18_734 - x_18_741 - x_18_89 - x_18_102 - x_18_-1
   + x_-2_18 = 0
 Service_inflow_349: x_336_349 + x_873_349 - x_349_366 - x_349_50
   - x_349_63 - x_349_382 - x_349_-1 + x_-2_349 = 0
 Service_inflow_351: x_336_351 + x_873_351 - x_351_366 - x_351_50
   - x_351_63 - x_351_382 - x_351_388 - x_351_95 - x_351_-1 + x_-2_351 = 0
 Service_inflow_23: x_872_23 + x_880_23 + x_693_23 + x_1_23 + x_929_23
   - x_23_63 - x_23_382 - x_23_388 - x_23_95 - x_23_390 - x_23_107
   - x_23_-1 + x_-2_23 = 0
 Service_inflow_30: x_336_30 + x_873_30 + x_5_30 + x_343_30 - x_30_69
   - x_30_73 - x_30_734 - x_30_741 - x_30_89 - x_30_102 - x_30_-1 + x_-2_30
   = 0
 Service_inflow_34: x_336_34 + x_873_34 + x_5_34 + x_7_34 + x_343_34
   - x_34_73 - x_34_734 - x_34_741 - x_34_89 - x_34_102 - x_34_757
   - x_34_-1 + x_-2_34 = 0
 Service_inflow_359: x_336_359 + x_873_359 + x_5_359 + x_7_359 + x_343_359
   - x_359_382 - x_359_388 - x_359_95 - x_359_390 - x_359_107 - x_359_-1
   + x_-2_359 = 0
 Service_inflow_718: x_880_718 + x_693_718 + x_1_718 + x_929_718
   + x_698_718 + x_702_718 - x_718_73 - x_718_734 - x_718_741 - x_718_89
   - x_718_102 - x_718_-1 + x_-2_718 = 0
 Service_inflow_366: x_873_366 + x_5_366 + x_7_366 + x_343_366 + x_349_366
   + x_351_366 - x_366_382 - x_366_388 - x_366_95 - x_366_390 - x_366_107
   - x_366_111 - x_366_398 - x_366_-1 + x_-2_366 = 0
 Service_inflow_50: x_873_50 + x_5_50 + x_7_50 + x_343_50 + x_14_50
   + x_349_50 + x_351_50 - x_50_89 - x_50_102 - x_50_757 - x_50_128
   - x_50_763 - x_50_-1 + x_-2_50 = 0
 Service_inflow_56: x_880_56 + x_1_56 + x_698_56 + x_702_56 + x_18_56
   - x_56_388 - x_56_95 - x_56_390 - x_56_107 - x_56_111 - x_56_398
   - x_56_405 - x_56_125 - x_56_135 - x_56_-1 + x_-2_56 = 0
 Service_inflow_724: x_880_724 + x_1_724 + x_698_724 + x_702_724 + x_18_724
   - x_724_741 - x_724_89 - x_724_102 - x_724_757 - x_724_-1 + x_-2_724
   = 0
 Service_inflow_726: x_1_726 + x_698_726 + x_702_726 + x_18_726 - x_726_741
   - x_726_89 - x_726_102 - x_726_757 - x_726_128 - x_726_763 - x_726_-1
   + x_-2_726 = 0
 Service_inflow_63: x_5_63 + x_7_63 + x_343_63 + x_14_63 + x_349_63
   + x_351_63 + x_23_63 - x_63_102 - x_63_757 - x_63_128 - x_63_763
   - x_63_765 - x_63_140 - x_63_-1 + x_-2_63 = 0
 Service_inflow_69: x_1_69 + x_698_69 + x_702_69 + x_18_69 + x_30_69
   - x_69_107 - x_69_111 - x_69_398 - x_69_405 - x_69_125 - x_69_135
   - x_69_-1 + x_-2_69 = 0
 Service_inflow_73: x_698_73 + x_702_73 + x_18_73 + x_30_73 + x_34_73
   + x_718_73 - x_73_111 - x_73_398 - x_73_405 - x_73_125 - x_73_135
   - x_73_418 - x_73_-1 + x_-2_73 = 0
 Service_inflow_734: x_702_734 + x_18_734 + x_30_734 + x_34_734 + x_718_734
   - x_734_757 - x_734_128 - x_734_763 - x_734_765 - x_734_140 - x_734_144
   - x_734_-1 + x_-2_734 = 0
 Service_inflow_382: x_7_382 + x_14_382 + x_349_382 + x_351_382 + x_23_382
   + x_359_382 + x_366_382 - x_382_107 - x_382_111 - x_382_398 - x_382_405
   - x_382_125 - x_382_135 - x_382_-1 + x_-2_382 = 0
 Service_inflow_741: x_18_741 + x_30_741 + x_34_741 + x_718_741 + x_724_741
   + x_726_741 - x_741_757 - x_741_128 - x_741_763 - x_741_765 - x_741_140
   - x_741_144 - x_741_772 - x_741_-1 + x_-2_741 = 0
 Service_inflow_89: x_18_89 + x_30_89 + x_34_89 + x_718_89 + x_50_89
   + x_724_89 + x_726_89 - x_89_125 - x_89_135 - x_89_418 - x_89_424
   - x_89_161 - x_89_-1 + x_-2_89 = 0
 Service_inflow_388: x_14_388 + x_351_388 + x_23_388 + x_359_388
   + x_366_388 + x_56_388 - x_388_405 - x_388_125 - x_388_135 - x_388_418
   - x_388_-1 + x_-2_388 = 0
 Service_inflow_95: x_14_95 + x_351_95 + x_23_95 + x_359_95 + x_366_95
   + x_56_95 - x_95_128 - x_95_763 - x_95_765 - x_95_140 - x_95_144
   - x_95_772 - x_95_777 - x_95_158 - x_95_-1 + x_-2_95 = 0
 Service_inflow_390: x_14_390 + x_23_390 + x_359_390 + x_366_390 + x_56_390
   - x_390_405 - x_390_125 - x_390_135 - x_390_418 - x_390_424 - x_390_-1
   + x_-2_390 = 0
 Service_inflow_102: x_18_102 + x_30_102 + x_34_102 + x_718_102 + x_50_102
   + x_724_102 + x_726_102 + x_63_102 - x_102_135 - x_102_418 - x_102_424
   - x_102_161 - x_102_426 - x_102_-1 + x_-2_102 = 0
 Service_inflow_107: x_23_107 + x_359_107 + x_366_107 + x_56_107 + x_69_107
   + x_382_107 - x_107_140 - x_107_144 - x_107_772 - x_107_777 - x_107_158
   - x_107_168 - x_107_-1 + x_-2_107 = 0
 Service_inflow_111: x_366_111 + x_56_111 + x_69_111 + x_73_111 + x_382_111
   - x_111_144 - x_111_772 - x_111_777 - x_111_158 - x_111_168 - x_111_-1
   + x_-2_111 = 0
 Service_inflow_398: x_366_398 + x_56_398 + x_69_398 + x_73_398 + x_382_398
   - x_398_135 - x_398_418 - x_398_424 - x_398_161 - x_398_426 - x_398_173
   - x_398_-1 + x_-2_398 = 0
 Service_inflow_757: x_34_757 + x_50_757 + x_724_757 + x_726_757 + x_63_757
   + x_734_757 + x_741_757 - x_757_140 - x_757_144 - x_757_772 - x_757_777
   - x_757_158 - x_757_168 - x_757_-1 + x_-2_757 = 0
 Service_inflow_405: x_56_405 + x_69_405 + x_73_405 + x_382_405 + x_388_405
   + x_390_405 - x_405_418 - x_405_424 - x_405_161 - x_405_426 - x_405_173
   - x_405_177 - x_405_433 - x_405_-1 + x_-2_405 = 0
 Service_inflow_125: x_56_125 + x_69_125 + x_73_125 + x_382_125 + x_89_125
   + x_388_125 + x_390_125 - x_125_777 - x_125_158 - x_125_168 - x_125_790
   - x_125_194 - x_125_796 - x_125_-1 + x_-2_125 = 0
 Service_inflow_128: x_50_128 + x_726_128 + x_63_128 + x_734_128
   + x_741_128 + x_95_128 - x_128_424 - x_128_161 - x_128_426 - x_128_173
   - x_128_177 - x_128_433 - x_128_438 - x_128_192 - x_128_-1 + x_-2_128
   = 0
 Service_inflow_763: x_50_763 + x_726_763 + x_63_763 + x_734_763
   + x_741_763 + x_95_763 - x_763_777 - x_763_158 - x_763_168 - x_763_790
   - x_763_-1 + x_-2_763 = 0
 Service_inflow_765: x_63_765 + x_734_765 + x_741_765 + x_95_765
   - x_765_777 - x_765_158 - x_765_168 - x_765_790 - x_765_194 - x_765_-1
   + x_-2_765 = 0
 Service_inflow_135: x_56_135 + x_69_135 + x_73_135 + x_382_135 + x_89_135
   + x_388_135 + x_390_135 + x_102_135 + x_398_135 - x_135_168 - x_135_790
   - x_135_194 - x_135_796 - x_135_798 - x_135_206 - x_135_-1 + x_-2_135
   = 0
 Service_inflow_140: x_63_140 + x_734_140 + x_741_140 + x_95_140
   + x_107_140 + x_757_140 - x_140_173 - x_140_177 - x_140_433 - x_140_438
   - x_140_192 - x_140_202 - x_140_-1 + x_-2_140 = 0
 Service_inflow_144: x_734_144 + x_741_144 + x_95_144 + x_107_144
   + x_111_144 + x_757_144 - x_144_177 - x_144_433 - x_144_438 - x_144_192
   - x_144_202 - x_144_-1 + x_-2_144 = 0
 Service_inflow_772: x_741_772 + x_95_772 + x_107_772 + x_111_772
   + x_757_772 - x_772_790 - x_772_194 - x_772_796 - x_772_798 - x_772_206
   - x_772_-1 + x_-2_772 = 0
 Service_inflow_418: x_73_418 + x_89_418 + x_388_418 + x_390_418
   + x_102_418 + x_398_418 + x_405_418 - x_418_173 - x_418_177 - x_418_433
   - x_418_438 - x_418_192 - x_418_202 - x_418_-1 + x_-2_418 = 0
 Service_inflow_777: x_95_777 + x_107_777 + x_111_777 + x_757_777
   + x_125_777 + x_763_777 + x_765_777 - x_777_790 - x_777_194 - x_777_796
   - x_777_798 - x_777_206 - x_777_210 - x_777_805 - x_777_-1 + x_-2_777
   = 0
 Service_inflow_158: x_95_158 + x_107_158 + x_111_158 + x_757_158
   + x_125_158 + x_763_158 + x_765_158 - x_158_438 - x_158_192 - x_158_202
   - x_158_453 - x_158_459 - x_158_229 - x_158_-1 + x_-2_158 = 0
 Service_inflow_424: x_89_424 + x_390_424 + x_102_424 + x_398_424
   + x_405_424 + x_128_424 - x_424_438 - x_424_192 - x_424_202 - x_424_453
   - x_424_-1 + x_-2_424 = 0
 Service_inflow_161: x_89_161 + x_102_161 + x_398_161 + x_405_161
   + x_128_161 - x_161_194 - x_161_796 - x_161_798 - x_161_206 - x_161_210
   - x_161_805 - x_161_810 - x_161_225 - x_161_236 - x_161_-1 + x_-2_161
   = 0
 Service_inflow_426: x_102_426 + x_398_426 + x_405_426 + x_128_426
   - x_426_438 - x_426_192 - x_426_202 - x_426_453 - x_426_459 - x_426_229
   - x_426_-1 + x_-2_426 = 0
 Service_inflow_168: x_107_168 + x_111_168 + x_757_168 + x_125_168
   + x_763_168 + x_765_168 + x_135_168 - x_168_202 - x_168_453 - x_168_459
   - x_168_229 - x_168_462 - x_168_241 - x_168_-1 + x_-2_168 = 0
 Service_inflow_173: x_398_173 + x_405_173 + x_128_173 + x_140_173
   + x_418_173 - x_173_206 - x_173_210 - x_173_805 - x_173_810 - x_173_225
   - x_173_236 - x_173_-1 + x_-2_173 = 0
 Service_inflow_177: x_405_177 + x_128_177 + x_140_177 + x_144_177
   + x_418_177 - x_177_210 - x_177_805 - x_177_810 - x_177_225 - x_177_236
   - x_177_825 - x_177_-1 + x_-2_177 = 0
 Service_inflow_433: x_405_433 + x_128_433 + x_140_433 + x_144_433
   + x_418_433 - x_433_202 - x_433_453 - x_433_459 - x_433_229 - x_433_462
   - x_433_241 - x_433_247 - x_433_-1 + x_-2_433 = 0
 Service_inflow_790: x_125_790 + x_763_790 + x_765_790 + x_135_790
   + x_772_790 + x_777_790 - x_790_210 - x_790_805 - x_790_810 - x_790_225
   - x_790_236 - x_790_-1 + x_-2_790 = 0
 Service_inflow_438: x_128_438 + x_140_438 + x_144_438 + x_418_438
   + x_158_438 + x_424_438 + x_426_438 - x_438_453 - x_438_459 - x_438_229
   - x_438_462 - x_438_241 - x_438_247 - x_438_470 - x_438_-1 + x_-2_438
   = 0
 Service_inflow_192: x_128_192 + x_140_192 + x_144_192 + x_418_192
   + x_158_192 + x_424_192 + x_426_192 - x_192_810 - x_192_225 - x_192_236
   - x_192_825 - x_192_266 - x_192_831 - x_192_834 - x_192_-1 + x_-2_192
   = 0
 Service_inflow_194: x_125_194 + x_765_194 + x_135_194 + x_772_194
   + x_777_194 + x_161_194 - x_194_459 - x_194_229 - x_194_462 - x_194_241
   - x_194_247 - x_194_470 - x_194_475 - x_194_263 - x_194_273 - x_194_-1
   + x_-2_194 = 0
 Service_inflow_796: x_125_796 + x_135_796 + x_772_796 + x_777_796
   + x_161_796 - x_796_810 - x_796_225 - x_796_236 - x_796_825 - x_796_266
   - x_796_831 - x_796_-1 + x_-2_796 = 0
 Service_inflow_798: x_135_798 + x_772_798 + x_777_798 + x_161_798
   - x_798_810 - x_798_225 - x_798_236 - x_798_825 - x_798_266 - x_798_831
   - x_798_-1 + x_-2_798 = 0
 Service_inflow_202: x_140_202 + x_144_202 + x_418_202 + x_158_202
   + x_424_202 + x_426_202 + x_168_202 + x_433_202 - x_202_825 - x_202_266
   - x_202_831 - x_202_834 - x_202_278 - x_202_284 - x_202_-1 + x_-2_202
   = 0
 Service_inflow_206: x_135_206 + x_772_206 + x_777_206 + x_161_206
   + x_173_206 - x_206_241 - x_206_247 - x_206_470 - x_206_475 - x_206_263
   - x_206_273 - x_206_-1 + x_-2_206 = 0
 Service_inflow_210: x_777_210 + x_161_210 + x_173_210 + x_177_210
   + x_790_210 - x_210_247 - x_210_470 - x_210_475 - x_210_263 - x_210_273
   - x_210_490 - x_210_-1 + x_-2_210 = 0
 Service_inflow_805: x_777_805 + x_161_805 + x_173_805 + x_177_805
   + x_790_805 - x_805_825 - x_805_266 - x_805_831 - x_805_834 - x_805_278
   - x_805_284 - x_805_-1 + x_-2_805 = 0
 Service_inflow_453: x_158_453 + x_424_453 + x_426_453 + x_168_453
   + x_433_453 + x_438_453 - x_453_241 - x_453_247 - x_453_470 - x_453_475
   - x_453_263 - x_453_273 - x_453_-1 + x_-2_453 = 0
 Service_inflow_810: x_161_810 + x_173_810 + x_177_810 + x_790_810
   + x_192_810 + x_796_810 + x_798_810 - x_810_825 - x_810_266 - x_810_831
   - x_810_834 - x_810_278 - x_810_284 - x_810_842 - x_810_-1 + x_-2_810
   = 0
 Service_inflow_225: x_161_225 + x_173_225 + x_177_225 + x_790_225
   + x_192_225 + x_796_225 + x_798_225 - x_225_263 - x_225_273 - x_225_490
   - x_225_496 - x_225_903 - x_225_499 - x_225_-1 + x_-2_225 = 0
 Service_inflow_459: x_158_459 + x_426_459 + x_168_459 + x_433_459
   + x_438_459 + x_194_459 - x_459_475 - x_459_263 - x_459_273 - x_459_490
   - x_459_-1 + x_-2_459 = 0
 Service_inflow_229: x_158_229 + x_426_229 + x_168_229 + x_433_229
   + x_438_229 + x_194_229 - x_229_831 - x_229_834 - x_229_278 - x_229_284
   - x_229_842 - x_229_847 - x_229_299 - x_229_307 - x_229_-1 + x_-2_229
   = 0
 Service_inflow_462: x_168_462 + x_433_462 + x_438_462 + x_194_462
   - x_462_475 - x_462_263 - x_462_273 - x_462_490 - x_462_496 - x_462_903
   - x_462_-1 + x_-2_462 = 0
 Service_inflow_236: x_161_236 + x_173_236 + x_177_236 + x_790_236
   + x_192_236 + x_796_236 + x_798_236 - x_236_273 - x_236_490 - x_236_496
   - x_236_903 - x_236_499 - x_236_905 - x_236_-1 + x_-2_236 = 0
 Service_inflow_241: x_168_241 + x_433_241 + x_438_241 + x_194_241
   + x_206_241 + x_453_241 - x_241_284 - x_241_842 - x_241_847 - x_241_299
   - x_241_307 - x_241_-1 + x_-2_241 = 0
 Service_inflow_247: x_433_247 + x_438_247 + x_194_247 + x_206_247
   + x_210_247 + x_453_247 - x_247_842 - x_247_847 - x_247_299 - x_247_307
   - x_247_-1 + x_-2_247 = 0
 Service_inflow_470: x_438_470 + x_194_470 + x_206_470 + x_210_470
   + x_453_470 - x_470_490 - x_470_496 - x_470_903 - x_470_499 - x_470_905
   - x_470_-1 + x_-2_470 = 0
 Service_inflow_825: x_177_825 + x_192_825 + x_796_825 + x_798_825
   + x_202_825 + x_805_825 + x_810_825 - x_825_284 - x_825_842 - x_825_847
   - x_825_299 - x_825_307 - x_825_-1 + x_-2_825 = 0
 Service_inflow_475: x_194_475 + x_206_475 + x_210_475 + x_453_475
   + x_459_475 + x_462_475 - x_475_490 - x_475_496 - x_475_903 - x_475_499
   - x_475_905 - x_475_316 - x_475_507 - x_475_-1 + x_-2_475 = 0
 Service_inflow_263: x_194_263 + x_206_263 + x_210_263 + x_453_263
   + x_225_263 + x_459_263 + x_462_263 - x_263_299 - x_263_307 - x_263_-1
   + x_-2_263 = 0
 Service_inflow_266: x_192_266 + x_796_266 + x_798_266 + x_202_266
   + x_805_266 + x_810_266 - x_266_496 - x_266_903 - x_266_499 - x_266_905
   - x_266_316 - x_266_507 - x_266_511 - x_266_-1 + x_-2_266 = 0
 Service_inflow_831: x_192_831 + x_796_831 + x_798_831 + x_202_831
   + x_805_831 + x_810_831 + x_229_831 - x_831_847 - x_831_299 - x_831_307
   - x_831_-1 + x_-2_831 = 0
 Service_inflow_834: x_192_834 + x_202_834 + x_805_834 + x_810_834
   + x_229_834 - x_834_847 - x_834_299 - x_834_307 - x_834_-1 + x_-2_834
   = 0
 Service_inflow_273: x_194_273 + x_206_273 + x_210_273 + x_453_273
   + x_225_273 + x_459_273 + x_462_273 + x_236_273 - x_273_307 - x_273_867
   - x_273_-1 + x_-2_273 = 0
 Service_inflow_278: x_202_278 + x_805_278 + x_810_278 + x_229_278
   - x_278_905 - x_278_316 - x_278_507 - x_278_511 - x_278_-1 + x_-2_278
   = 0
 Service_inflow_284: x_202_284 + x_805_284 + x_810_284 + x_229_284
   + x_241_284 + x_825_284 - x_284_316 - x_284_507 - x_284_511 - x_284_-1
   + x_-2_284 = 0
 Service_inflow_842: x_810_842 + x_229_842 + x_241_842 + x_247_842
   + x_825_842 - x_842_867 - x_842_-1 + x_-2_842 = 0
 Service_inflow_490: x_210_490 + x_225_490 + x_459_490 + x_462_490
   + x_236_490 + x_470_490 + x_475_490 - x_490_316 - x_490_507 - x_490_511
   - x_490_-1 + x_-2_490 = 0
 Service_inflow_847: x_229_847 + x_241_847 + x_247_847 + x_825_847
   + x_831_847 + x_834_847 - x_847_867 - x_847_-1 + x_-2_847 = 0
 Service_inflow_299: x_229_299 + x_241_299 + x_247_299 + x_825_299
   + x_263_299 + x_831_299 + x_834_299 - x_299_-1 + x_-2_299 = 0
 Service_inflow_496: x_225_496 + x_462_496 + x_236_496 + x_470_496
   + x_475_496 + x_266_496 - x_496_511 - x_496_-1 + x_-2_496 = 0
 Service_inflow_903: x_225_903 + x_462_903 + x_236_903 + x_470_903
   + x_475_903 + x_266_903 - x_903_-1 + x_-2_903 = 0
 Service_inflow_499: x_225_499 + x_236_499 + x_470_499 + x_475_499
   + x_266_499 - x_499_511 - x_499_-1 + x_-2_499 = 0
 Service_inflow_307: x_229_307 + x_241_307 + x_247_307 + x_825_307
   + x_263_307 + x_831_307 + x_834_307 + x_273_307 - x_307_-1 + x_-2_307
   = 0
 Service_inflow_905: x_236_905 + x_470_905 + x_475_905 + x_266_905
   + x_278_905 - x_905_-1 + x_-2_905 = 0
 Service_inflow_316: x_475_316 + x_266_316 + x_278_316 + x_284_316
   + x_490_316 - x_316_-1 + x_-2_316 = 0
 Service_inflow_507: x_475_507 + x_266_507 + x_278_507 + x_284_507
   + x_490_507 - x_507_-1 + x_-2_507 = 0
 Service_inflow_914: - x_914_-1 + x_-2_914 = 0
 Service_inflow_511: x_266_511 + x_278_511 + x_284_511 + x_490_511
   + x_496_511 + x_499_511 - x_511_-1 + x_-2_511 = 0
 Service_inflow_917: - x_917_-1 + x_-2_917 = 0
 Service_inflow_867: x_273_867 + x_842_867 + x_847_867 - x_867_-1
   + x_-2_867 = 0
 Service_inflow_684: - x_684_-1 + x_-2_684 = 0
 Service_flow_-1: x_336_-1 + x_872_-1 + x_873_-1 + x_527_-1 + x_880_-1
   + x_693_-1 + x_1_-1 + x_929_-1 + x_5_-1 + x_7_-1 + x_698_-1 + x_343_-1
   + x_702_-1 + x_14_-1 + x_18_-1 + x_349_-1 + x_351_-1 + x_23_-1 + x_30_-1
   + x_34_-1 + x_359_-1 + x_718_-1 + x_366_-1 + x_50_-1 + x_56_-1
   + x_724_-1 + x_726_-1 + x_63_-1 + x_69_-1 + x_73_-1 + x_734_-1
   + x_382_-1 + x_741_-1 + x_89_-1 + x_388_-1 + x_95_-1 + x_390_-1
   + x_102_-1 + x_107_-1 + x_111_-1 + x_398_-1 + x_757_-1 + x_405_-1
   + x_125_-1 + x_128_-1 + x_763_-1 + x_765_-1 + x_135_-1 + x_140_-1
   + x_144_-1 + x_772_-1 + x_418_-1 + x_777_-1 + x_158_-1 + x_424_-1
   + x_161_-1 + x_426_-1 + x_168_-1 + x_173_-1 + x_177_-1 + x_433_-1
   + x_790_-1 + x_438_-1 + x_192_-1 + x_194_-1 + x_796_-1 + x_798_-1
   + x_202_-1 + x_206_-1 + x_210_-1 + x_805_-1 + x_453_-1 + x_810_-1
   + x_225_-1 + x_459_-1 + x_229_-1 + x_462_-1 + x_236_-1 + x_241_-1
   + x_247_-1 + x_470_-1 + x_825_-1 + x_475_-1 + x_263_-1 + x_266_-1
   + x_831_-1 + x_834_-1 + x_273_-1 + x_278_-1 + x_284_-1 + x_842_-1
   + x_490_-1 + x_847_-1 + x_299_-1 + x_496_-1 + x_903_-1 + x_499_-1
   + x_307_-1 + x_905_-1 + x_316_-1 + x_507_-1 + x_914_-1 + x_511_-1
   + x_917_-1 + x_867_-1 + x_684_-1 = 1
 Service_flow_-2: x_-2_336 + x_-2_872 + x_-2_873 + x_-2_527 + x_-2_880
   + x_-2_693 + x_-2_1 + x_-2_929 + x_-2_5 + x_-2_7 + x_-2_698 + x_-2_343
   + x_-2_702 + x_-2_14 + x_-2_18 + x_-2_349 + x_-2_351 + x_-2_23 + x_-2_30
   + x_-2_34 + x_-2_359 + x_-2_718 + x_-2_366 + x_-2_50 + x_-2_56
   + x_-2_724 + x_-2_726 + x_-2_63 + x_-2_69 + x_-2_73 + x_-2_734
   + x_-2_382 + x_-2_741 + x_-2_89 + x_-2_388 + x_-2_95 + x_-2_390
   + x_-2_102 + x_-2_107 + x_-2_111 + x_-2_398 + x_-2_757 + x_-2_405
   + x_-2_125 + x_-2_128 + x_-2_763 + x_-2_765 + x_-2_135 + x_-2_140
   + x_-2_144 + x_-2_772 + x_-2_418 + x_-2_777 + x_-2_158 + x_-2_424
   + x_-2_161 + x_-2_426 + x_-2_168 + x_-2_173 + x_-2_177 + x_-2_433
   + x_-2_790 + x_-2_438 + x_-2_192 + x_-2_194 + x_-2_796 + x_-2_798
   + x_-2_202 + x_-2_206 + x_-2_210 + x_-2_805 + x_-2_453 + x_-2_810
   + x_-2_225 + x_-2_459 + x_-2_229 + x_-2_462 + x_-2_236 + x_-2_241
   + x_-2_247 + x_-2_470 + x_-2_825 + x_-2_475 + x_-2_263 + x_-2_266
   + x_-2_831 + x_-2_834 + x_-2_273 + x_-2_278 + x_-2_284 + x_-2_842
   + x_-2_490 + x_-2_847 + x_-2_299 + x_-2_496 + x_-2_903 + x_-2_499
   + x_-2_307 + x_-2_905 + x_-2_316 + x_-2_507 + x_-2_914 + x_-2_511
   + x_-2_917 + x_-2_867 + x_-2_684 = 1
 R108: 35 x_336_343 + 35 x_336_18 + 35 x_336_349 + 35 x_336_351
   + 35 x_336_30 + 35 x_336_34 + 35 x_336_359 + 35 x_336_-1 + 28 x_872_7
   + 28 x_872_698 + 28 x_872_702 + 28 x_872_14 + 28 x_872_23 + 28 x_872_-1
   + 78 x_873_18 + 78 x_873_349 + 78 x_873_351 + 78 x_873_30 + 78 x_873_34
   + 78 x_873_359 + 78 x_873_366 + 78 x_873_50 + 78 x_873_-1 + 21 x_527_-1
   + 52 x_880_702 + 52 x_880_14 + 52 x_880_23 + 52 x_880_718 + 52 x_880_56
   + 52 x_880_724 + 52 x_880_-1 + 40 x_693_7 + 40 x_693_702 + 40 x_693_14
   + 40 x_693_23 + 40 x_693_718 + 40 x_693_-1 + 67 x_1_23 + 67 x_1_718
   + 67 x_1_56 + 67 x_1_724 + 67 x_1_726 + 67 x_1_69 + 67 x_1_-1
   + 15 x_929_702 + 15 x_929_14 + 15 x_929_23 + 15 x_929_718 + 15 x_929_-1
   + 67 x_5_30 + 67 x_5_34 + 67 x_5_359 + 67 x_5_366 + 67 x_5_50
   + 67 x_5_63 + 67 x_5_-1 + 66 x_7_34 + 66 x_7_359 + 66 x_7_366
   + 66 x_7_50 + 66 x_7_63 + 66 x_7_382 + 66 x_7_-1 + 45 x_698_718
   + 45 x_698_56 + 45 x_698_724 + 45 x_698_726 + 45 x_698_69 + 45 x_698_73
   + 45 x_698_-1 + 45 x_343_30 + 45 x_343_34 + 45 x_343_359 + 45 x_343_366
   + 45 x_343_50 + 45 x_343_63 + 45 x_343_-1 + 42 x_702_718 + 42 x_702_56
   + 42 x_702_724 + 42 x_702_726 + 42 x_702_69 + 42 x_702_73 + 42 x_702_734
   + 42 x_702_-1 + 66 x_14_50 + 66 x_14_63 + 66 x_14_382 + 66 x_14_388
   + 66 x_14_95 + 66 x_14_390 + 66 x_14_-1 + 62 x_18_56 + 62 x_18_724
   + 62 x_18_726 + 62 x_18_69 + 62 x_18_73 + 62 x_18_734 + 62 x_18_741
   + 62 x_18_89 + 62 x_18_102 + 62 x_18_-1 + 35 x_349_366 + 35 x_349_50
   + 35 x_349_63 + 35 x_349_382 + 35 x_349_-1 + 34 x_351_366 + 34 x_351_50
   + 34 x_351_63 + 34 x_351_382 + 34 x_351_388 + 34 x_351_95 + 34 x_351_-1
   + 62 x_23_63 + 62 x_23_382 + 62 x_23_388 + 62 x_23_95 + 62 x_23_390
   + 62 x_23_107 + 62 x_23_-1 + 62 x_30_69 + 62 x_30_73 + 62 x_30_734
   + 62 x_30_741 + 62 x_30_89 + 62 x_30_102 + 62 x_30_-1 + 62 x_34_73
   + 62 x_34_734 + 62 x_34_741 + 62 x_34_89 + 62 x_34_102 + 62 x_34_757
   + 62 x_34_-1 + 33 x_359_382 + 33 x_359_388 + 33 x_359_95 + 33 x_359_390
   + 33 x_359_107 + 33 x_359_-1 + 39 x_718_73 + 39 x_718_734 + 39 x_718_741
   + 39 x_718_89 + 39 x_718_102 + 39 x_718_-1 + 34 x_366_382 + 34 x_366_388
   + 34 x_366_95 + 34 x_366_390 + 34 x_366_107 + 34 x_366_111
   + 34 x_366_398 + 34 x_366_-1 + 62 x_50_89 + 62 x_50_102 + 62 x_50_757
   + 62 x_50_128 + 62 x_50_763 + 62 x_50_-1 + 62 x_56_388 + 62 x_56_95
   + 62 x_56_390 + 62 x_56_107 + 62 x_56_111 + 62 x_56_398 + 62 x_56_405
   + 62 x_56_125 + 62 x_56_135 + 62 x_56_-1 + 35 x_724_741 + 35 x_724_89
   + 35 x_724_102 + 35 x_724_757 + 35 x_724_-1 + 35 x_726_741 + 35 x_726_89
   + 35 x_726_102 + 35 x_726_757 + 35 x_726_128 + 35 x_726_763
   + 35 x_726_-1 + 62 x_63_102 + 62 x_63_757 + 62 x_63_128 + 62 x_63_763
   + 62 x_63_765 + 62 x_63_140 + 62 x_63_-1 + 62 x_69_107 + 62 x_69_111
   + 62 x_69_398 + 62 x_69_405 + 62 x_69_125 + 62 x_69_135 + 62 x_69_-1
   + 62 x_73_111 + 62 x_73_398 + 62 x_73_405 + 62 x_73_125 + 62 x_73_135
   + 62 x_73_418 + 62 x_73_-1 + 36 x_734_757 + 36 x_734_128 + 36 x_734_763
   + 36 x_734_765 + 36 x_734_140 + 36 x_734_144 + 36 x_734_-1
   + 32 x_382_107 + 32 x_382_111 + 32 x_382_398 + 32 x_382_405
   + 32 x_382_125 + 32 x_382_135 + 32 x_382_-1 + 37 x_741_757
   + 37 x_741_128 + 37 x_741_763 + 37 x_741_765 + 37 x_741_140
   + 37 x_741_144 + 37 x_741_772 + 37 x_741_-1 + 62 x_89_125 + 62 x_89_135
   + 62 x_89_418 + 62 x_89_424 + 62 x_89_161 + 62 x_89_-1 + 34 x_388_405
   + 34 x_388_125 + 34 x_388_135 + 34 x_388_418 + 34 x_388_-1 + 62 x_95_128
   + 62 x_95_763 + 62 x_95_765 + 62 x_95_140 + 62 x_95_144 + 62 x_95_772
   + 62 x_95_777 + 62 x_95_158 + 62 x_95_-1 + 36 x_390_405 + 36 x_390_125
   + 36 x_390_135 + 36 x_390_418 + 36 x_390_424 + 36 x_390_-1
   + 62 x_102_135 + 62 x_102_418 + 62 x_102_424 + 62 x_102_161
   + 62 x_102_426 + 62 x_102_-1 + 62 x_107_140 + 62 x_107_144
   + 62 x_107_772 + 62 x_107_777 + 62 x_107_158 + 62 x_107_168
   + 62 x_107_-1 + 62 x_111_144 + 62 x_111_772 + 62 x_111_777
   + 62 x_111_158 + 62 x_111_168 + 62 x_111_-1 + 36 x_398_135
   + 36 x_398_418 + 36 x_398_424 + 36 x_398_161 + 36 x_398_426
   + 36 x_398_173 + 36 x_398_-1 + 36 x_757_140 + 36 x_757_144
   + 36 x_757_772 + 36 x_757_777 + 36 x_757_158 + 36 x_757_168
   + 36 x_757_-1 + 37 x_405_418 + 37 x_405_424 + 37 x_405_161
   + 37 x_405_426 + 37 x_405_173 + 37 x_405_177 + 37 x_405_433
   + 37 x_405_-1 + 67 x_125_777 + 67 x_125_158 + 67 x_125_168
   + 67 x_125_790 + 67 x_125_194 + 67 x_125_796 + 67 x_125_-1
   + 66 x_128_424 + 66 x_128_161 + 66 x_128_426 + 66 x_128_173
   + 66 x_128_177 + 66 x_128_433 + 66 x_128_438 + 66 x_128_192
   + 66 x_128_-1 + 40 x_763_777 + 40 x_763_158 + 40 x_763_168
   + 40 x_763_790 + 40 x_763_-1 + 41 x_765_777 + 41 x_765_158
   + 41 x_765_168 + 41 x_765_790 + 41 x_765_194 + 41 x_765_-1
   + 68 x_135_168 + 68 x_135_790 + 68 x_135_194 + 68 x_135_796
   + 68 x_135_798 + 68 x_135_206 + 68 x_135_-1 + 66 x_140_173
   + 66 x_140_177 + 66 x_140_433 + 66 x_140_438 + 66 x_140_192
   + 66 x_140_202 + 66 x_140_-1 + 65 x_144_177 + 65 x_144_433
   + 65 x_144_438 + 65 x_144_192 + 65 x_144_202 + 65 x_144_-1
   + 39 x_772_790 + 39 x_772_194 + 39 x_772_796 + 39 x_772_798
   + 39 x_772_206 + 39 x_772_-1 + 37 x_418_173 + 37 x_418_177
   + 37 x_418_433 + 37 x_418_438 + 37 x_418_192 + 37 x_418_202
   + 37 x_418_-1 + 39 x_777_790 + 39 x_777_194 + 39 x_777_796
   + 39 x_777_798 + 39 x_777_206 + 39 x_777_210 + 39 x_777_805
   + 39 x_777_-1 + 66 x_158_438 + 66 x_158_192 + 66 x_158_202
   + 66 x_158_453 + 66 x_158_459 + 66 x_158_229 + 66 x_158_-1
   + 38 x_424_438 + 38 x_424_192 + 38 x_424_202 + 38 x_424_453
   + 38 x_424_-1 + 67 x_161_194 + 67 x_161_796 + 67 x_161_798
   + 67 x_161_206 + 67 x_161_210 + 67 x_161_805 + 67 x_161_810
   + 67 x_161_225 + 67 x_161_236 + 67 x_161_-1 + 38 x_426_438
   + 38 x_426_192 + 38 x_426_202 + 38 x_426_453 + 38 x_426_459
   + 38 x_426_229 + 38 x_426_-1 + 65 x_168_202 + 65 x_168_453
   + 65 x_168_459 + 65 x_168_229 + 65 x_168_462 + 65 x_168_241
   + 65 x_168_-1 + 67 x_173_206 + 67 x_173_210 + 67 x_173_805
   + 67 x_173_810 + 67 x_173_225 + 67 x_173_236 + 67 x_173_-1
   + 67 x_177_210 + 67 x_177_805 + 67 x_177_810 + 67 x_177_225
   + 67 x_177_236 + 67 x_177_825 + 67 x_177_-1 + 39 x_433_202
   + 39 x_433_453 + 39 x_433_459 + 39 x_433_229 + 39 x_433_462
   + 39 x_433_241 + 39 x_433_247 + 39 x_433_-1 + 40 x_790_210
   + 40 x_790_805 + 40 x_790_810 + 40 x_790_225 + 40 x_790_236
   + 40 x_790_-1 + 39 x_438_453 + 39 x_438_459 + 39 x_438_229
   + 39 x_438_462 + 39 x_438_241 + 39 x_438_247 + 39 x_438_470
   + 39 x_438_-1 + 62 x_192_810 + 62 x_192_225 + 62 x_192_236
   + 62 x_192_825 + 62 x_192_266 + 62 x_192_831 + 62 x_192_834
   + 62 x_192_-1 + 62 x_194_459 + 62 x_194_229 + 62 x_194_462
   + 62 x_194_241 + 62 x_194_247 + 62 x_194_470 + 62 x_194_475
   + 62 x_194_263 + 62 x_194_273 + 62 x_194_-1 + 37 x_796_810
   + 37 x_796_225 + 37 x_796_236 + 37 x_796_825 + 37 x_796_266
   + 37 x_796_831 + 37 x_796_-1 + 37 x_798_810 + 37 x_798_225
   + 37 x_798_236 + 37 x_798_825 + 37 x_798_266 + 37 x_798_831
   + 37 x_798_-1 + 62 x_202_825 + 62 x_202_266 + 62 x_202_831
   + 62 x_202_834 + 62 x_202_278 + 62 x_202_284 + 62 x_202_-1
   + 62 x_206_241 + 62 x_206_247 + 62 x_206_470 + 62 x_206_475
   + 62 x_206_263 + 62 x_206_273 + 62 x_206_-1 + 62 x_210_247
   + 62 x_210_470 + 62 x_210_475 + 62 x_210_263 + 62 x_210_273
   + 62 x_210_490 + 62 x_210_-1 + 39 x_805_825 + 39 x_805_266
   + 39 x_805_831 + 39 x_805_834 + 39 x_805_278 + 39 x_805_284
   + 39 x_805_-1 + 36 x_453_241 + 36 x_453_247 + 36 x_453_470
   + 36 x_453_475 + 36 x_453_263 + 36 x_453_273 + 36 x_453_-1
   + 34 x_810_825 + 34 x_810_266 + 34 x_810_831 + 34 x_810_834
   + 34 x_810_278 + 34 x_810_284 + 34 x_810_842 + 34 x_810_-1
   + 62 x_225_263 + 62 x_225_273 + 62 x_225_490 + 62 x_225_496
   + 62 x_225_903 + 62 x_225_499 + 62 x_225_-1 + 32 x_459_475
   + 32 x_459_263 + 32 x_459_273 + 32 x_459_490 + 32 x_459_-1
   + 62 x_229_831 + 62 x_229_834 + 62 x_229_278 + 62 x_229_284
   + 62 x_229_842 + 62 x_229_847 + 62 x_229_299 + 62 x_229_307
   + 62 x_229_-1 + 35 x_462_475 + 35 x_462_263 + 35 x_462_273
   + 35 x_462_490 + 35 x_462_496 + 35 x_462_903 + 35 x_462_-1
   + 62 x_236_273 + 62 x_236_490 + 62 x_236_496 + 62 x_236_903
   + 62 x_236_499 + 62 x_236_905 + 62 x_236_-1 + 62 x_241_284
   + 62 x_241_842 + 62 x_241_847 + 62 x_241_299 + 62 x_241_307
   + 62 x_241_-1 + 62 x_247_842 + 62 x_247_847 + 62 x_247_299
   + 62 x_247_307 + 62 x_247_-1 + 34 x_470_490 + 34 x_470_496
   + 34 x_470_903 + 34 x_470_499 + 34 x_470_905 + 34 x_470_-1
   + 34 x_825_284 + 34 x_825_842 + 34 x_825_847 + 34 x_825_299
   + 34 x_825_307 + 34 x_825_-1 + 32 x_475_490 + 32 x_475_496
   + 32 x_475_903 + 32 x_475_499 + 32 x_475_905 + 32 x_475_316
   + 32 x_475_507 + 32 x_475_-1 + 62 x_263_299 + 62 x_263_307 + 62 x_263_-1
   + 62 x_266_496 + 62 x_266_903 + 62 x_266_499 + 62 x_266_905
   + 62 x_266_316 + 62 x_266_507 + 62 x_266_511 + 62 x_266_-1
   + 34 x_831_847 + 34 x_831_299 + 34 x_831_307 + 34 x_831_-1
   + 34 x_834_847 + 34 x_834_299 + 34 x_834_307 + 34 x_834_-1
   + 62 x_273_307 + 62 x_273_867 + 62 x_273_-1 + 62 x_278_905
   + 62 x_278_316 + 62 x_278_507 + 62 x_278_511 + 62 x_278_-1
   + 62 x_284_316 + 62 x_284_507 + 62 x_284_511 + 62 x_284_-1
   + 38 x_842_867 + 38 x_842_-1 + 40 x_490_316 + 40 x_490_507
   + 40 x_490_511 + 40 x_490_-1 + 38 x_847_867 + 38 x_847_-1 + 66 x_299_-1
   + 37 x_496_511 + 37 x_496_-1 + 60 x_903_-1 + 39 x_499_511 + 39 x_499_-1
   + 65 x_307_-1 + 60 x_905_-1 + 67 x_316_-1 + 34 x_507_-1 + 20 x_914_-1
   + 35 x_511_-1 + 20 x_917_-1 + 35 x_867_-1 + 67 x_684_-1 <= 360
Bounds
Binaries
 x_336_343 x_336_18 x_336_349 x_336_351 x_336_30 x_336_34 x_336_359
 x_336_-1 x_872_7 x_872_698 x_872_702 x_872_14 x_872_23 x_872_-1 x_873_18
 x_873_349 x_873_351 x_873_30 x_873_34 x_873_359 x_873_366 x_873_50
 x_873_-1 x_527_-1 x_880_702 x_880_14 x_880_23 x_880_718 x_880_56 x_880_724
 x_880_-1 x_693_7 x_693_702 x_693_14 x_693_23 x_693_718 x_693_-1 x_1_23
 x_1_718 x_1_56 x_1_724 x_1_726 x_1_69 x_1_-1 x_929_702 x_929_14 x_929_23
 x_929_718 x_929_-1 x_5_30 x_5_34 x_5_359 x_5_366 x_5_50 x_5_63 x_5_-1
 x_7_34 x_7_359 x_7_366 x_7_50 x_7_63 x_7_382 x_7_-1 x_698_718 x_698_56
 x_698_724 x_698_726 x_698_69 x_698_73 x_698_-1 x_343_30 x_343_34 x_343_359
 x_343_366 x_343_50 x_343_63 x_343_-1 x_702_718 x_702_56 x_702_724
 x_702_726 x_702_69 x_702_73 x_702_734 x_702_-1 x_14_50 x_14_63 x_14_382
 x_14_388 x_14_95 x_14_390 x_14_-1 x_18_56 x_18_724 x_18_726 x_18_69
 x_18_73 x_18_734 x_18_741 x_18_89 x_18_102 x_18_-1 x_349_366 x_349_50
 x_349_63 x_349_382 x_349_-1 x_351_366 x_351_50 x_351_63 x_351_382
 x_351_388 x_351_95 x_351_-1 x_23_63 x_23_382 x_23_388 x_23_95 x_23_390
 x_23_107 x_23_-1 x_30_69 x_30_73 x_30_734 x_30_741 x_30_89 x_30_102
 x_30_-1 x_34_73 x_34_734 x_34_741 x_34_89 x_34_102 x_34_757 x_34_-1
 x_359_382 x_359_388 x_359_95 x_359_390 x_359_107 x_359_-1 x_718_73
 x_718_734 x_718_741 x_718_89 x_718_102 x_718_-1 x_366_382 x_366_388
 x_366_95 x_366_390 x_366_107 x_366_111 x_366_398 x_366_-1 x_50_89 x_50_102
 x_50_757 x_50_128 x_50_763 x_50_-1 x_56_388 x_56_95 x_56_390 x_56_107
 x_56_111 x_56_398 x_56_405 x_56_125 x_56_135 x_56_-1 x_724_741 x_724_89
 x_724_102 x_724_757 x_724_-1 x_726_741 x_726_89 x_726_102 x_726_757
 x_726_128 x_726_763 x_726_-1 x_63_102 x_63_757 x_63_128 x_63_763 x_63_765
 x_63_140 x_63_-1 x_69_107 x_69_111 x_69_398 x_69_405 x_69_125 x_69_135
 x_69_-1 x_73_111 x_73_398 x_73_405 x_73_125 x_73_135 x_73_418 x_73_-1
 x_734_757 x_734_128 x_734_763 x_734_765 x_734_140 x_734_144 x_734_-1
 x_382_107 x_382_111 x_382_398 x_382_405 x_382_125 x_382_135 x_382_-1
 x_741_757 x_741_128 x_741_763 x_741_765 x_741_140 x_741_144 x_741_772
 x_741_-1 x_89_125 x_89_135 x_89_418 x_89_424 x_89_161 x_89_-1 x_388_405
 x_388_125 x_388_135 x_388_418 x_388_-1 x_95_128 x_95_763 x_95_765 x_95_140
 x_95_144 x_95_772 x_95_777 x_95_158 x_95_-1 x_390_405 x_390_125 x_390_135
 x_390_418 x_390_424 x_390_-1 x_102_135 x_102_418 x_102_424 x_102_161
 x_102_426 x_102_-1 x_107_140 x_107_144 x_107_772 x_107_777 x_107_158
 x_107_168 x_107_-1 x_111_144 x_111_772 x_111_777 x_111_158 x_111_168
 x_111_-1 x_398_135 x_398_418 x_398_424 x_398_161 x_398_426 x_398_173
 x_398_-1 x_757_140 x_757_144 x_757_772 x_757_777 x_757_158 x_757_168
 x_757_-1 x_405_418 x_405_424 x_405_161 x_405_426 x_405_173 x_405_177
 x_405_433 x_405_-1 x_125_777 x_125_158 x_125_168 x_125_790 x_125_194
 x_125_796 x_125_-1 x_128_424 x_128_161 x_128_426 x_128_173 x_128_177
 x_128_433 x_128_438 x_128_192 x_128_-1 x_763_777 x_763_158 x_763_168
 x_763_790 x_763_-1 x_765_777 x_765_158 x_765_168 x_765_790 x_765_194
 x_765_-1 x_135_168 x_135_790 x_135_194 x_135_796 x_135_798 x_135_206
 x_135_-1 x_140_173 x_140_177 x_140_433 x_140_438 x_140_192 x_140_202
 x_140_-1 x_144_177 x_144_433 x_144_438 x_144_192 x_144_202 x_144_-1
 x_772_790 x_772_194 x_772_796 x_772_798 x_772_206 x_772_-1 x_418_173
 x_418_177 x_418_433 x_418_438 x_418_192 x_418_202 x_418_-1 x_777_790
 x_777_194 x_777_796 x_777_798 x_777_206 x_777_210 x_777_805 x_777_-1
 x_158_438 x_158_192 x_158_202 x_158_453 x_158_459 x_158_229 x_158_-1
 x_424_438 x_424_192 x_424_202 x_424_453 x_424_-1 x_161_194 x_161_796
 x_161_798 x_161_206 x_161_210 x_161_805 x_161_810 x_161_225 x_161_236
 x_161_-1 x_426_438 x_426_192 x_426_202 x_426_453 x_426_459 x_426_229
 x_426_-1 x_168_202 x_168_453 x_168_459 x_168_229 x_168_462 x_168_241
 x_168_-1 x_173_206 x_173_210 x_173_805 x_173_810 x_173_225 x_173_236
 x_173_-1 x_177_210 x_177_805 x_177_810 x_177_225 x_177_236 x_177_825
 x_177_-1 x_433_202 x_433_453 x_433_459 x_433_229 x_433_462 x_433_241
 x_433_247 x_433_-1 x_790_210 x_790_805 x_790_810 x_790_225 x_790_236
 x_790_-1 x_438_453 x_438_459 x_438_229 x_438_462 x_438_241 x_438_247
 x_438_470 x_438_-1 x_192_810 x_192_225 x_192_236 x_192_825 x_192_266
 x_192_831 x_192_834 x_192_-1 x_194_459 x_194_229 x_194_462 x_194_241
 x_194_247 x_194_470 x_194_475 x_194_263 x_194_273 x_194_-1 x_796_810
 x_796_225 x_796_236 x_796_825 x_796_266 x_796_831 x_796_-1 x_798_810
 x_798_225 x_798_236 x_798_825 x_798_266 x_798_831 x_798_-1 x_202_825
 x_202_266 x_202_831 x_202_834 x_202_278 x_202_284 x_202_-1 x_206_241
 x_206_247 x_206_470 x_206_475 x_206_263 x_206_273 x_206_-1 x_210_247
 x_210_470 x_210_475 x_210_263 x_210_273 x_210_490 x_210_-1 x_805_825
 x_805_266 x_805_831 x_805_834 x_805_278 x_805_284 x_805_-1 x_453_241
 x_453_247 x_453_470 x_453_475 x_453_263 x_453_273 x_453_-1 x_810_825
 x_810_266 x_810_831 x_810_834 x_810_278 x_810_284 x_810_842 x_810_-1
 x_225_263 x_225_273 x_225_490 x_225_496 x_225_903 x_225_499 x_225_-1
 x_459_475 x_459_263 x_459_273 x_459_490 x_459_-1 x_229_831 x_229_834
 x_229_278 x_229_284 x_229_842 x_229_847 x_229_299 x_229_307 x_229_-1
 x_462_475 x_462_263 x_462_273 x_462_490 x_462_496 x_462_903 x_462_-1
 x_236_273 x_236_490 x_236_496 x_236_903 x_236_499 x_236_905 x_236_-1
 x_241_284 x_241_842 x_241_847 x_241_299 x_241_307 x_241_-1 x_247_842
 x_247_847 x_247_299 x_247_307 x_247_-1 x_470_490 x_470_496 x_470_903
 x_470_499 x_470_905 x_470_-1 x_825_284 x_825_842 x_825_847 x_825_299
 x_825_307 x_825_-1 x_475_490 x_475_496 x_475_903 x_475_499 x_475_905
 x_475_316 x_475_507 x_475_-1 x_263_299 x_263_307 x_263_-1 x_266_496
 x_266_903 x_266_499 x_266_905 x_266_316 x_266_507 x_266_511 x_266_-1
 x_831_847 x_831_299 x_831_307 x_831_-1 x_834_847 x_834_299 x_834_307
 x_834_-1 x_273_307 x_273_867 x_273_-1 x_278_905 x_278_316 x_278_507
 x_278_511 x_278_-1 x_284_316 x_284_507 x_284_511 x_284_-1 x_842_867
 x_842_-1 x_490_316 x_490_507 x_490_511 x_490_-1 x_847_867 x_847_-1
 x_299_-1 x_496_511 x_496_-1 x_903_-1 x_499_511 x_499_-1 x_307_-1 x_905_-1
 x_316_-1 x_507_-1 x_914_-1 x_511_-1 x_917_-1 x_867_-1 x_684_-1 x_-2_336
 x_-2_872 x_-2_873 x_-2_527 x_-2_880 x_-2_693 x_-2_1 x_-2_929 x_-2_5 x_-2_7
 x_-2_698 x_-2_343 x_-2_702 x_-2_14 x_-2_18 x_-2_349 x_-2_351 x_-2_23
 x_-2_30 x_-2_34 x_-2_359 x_-2_718 x_-2_366 x_-2_50 x_-2_56 x_-2_724
 x_-2_726 x_-2_63 x_-2_69 x_-2_73 x_-2_734 x_-2_382 x_-2_741 x_-2_89
 x_-2_388 x_-2_95 x_-2_390 x_-2_102 x_-2_107 x_-2_111 x_-2_398 x_-2_757
 x_-2_405 x_-2_125 x_-2_128 x_-2_763 x_-2_765 x_-2_135 x_-2_140 x_-2_144
 x_-2_772 x_-2_418 x_-2_777 x_-2_158 x_-2_424 x_-2_161 x_-2_426 x_-2_168
 x_-2_173 x_-2_177 x_-2_433 x_-2_790 x_-2_438 x_-2_192 x_-2_194 x_-2_796
 x_-2_798 x_-2_202 x_-2_206 x_-2_210 x_-2_805 x_-2_453 x_-2_810 x_-2_225
 x_-2_459 x_-2_229 x_-2_462 x_-2_236 x_-2_241 x_-2_247 x_-2_470 x_-2_825
 x_-2_475 x_-2_263 x_-2_266 x_-2_831 x_-2_834 x_-2_273 x_-2_278 x_-2_284
 x_-2_842 x_-2_490 x_-2_847 x_-2_299 x_-2_496 x_-2_903 x_-2_499 x_-2_307
 x_-2_905 x_-2_316 x_-2_507 x_-2_914 x_-2_511 x_-2_917 x_-2_867 x_-2_684
End
